20
9	82	97	46	88
9	116	119	63	55
6	79	2	88	74
5	36	124	84	30
7	86	80	36	54
8	96	45	55	95
10	67	74	9	24
5	90	36	87	62
5	79	110	76	28
8	79	135	70	18
2	92	49	6	4
10	44	88	18	66
4	71	70	23	36
1	43	90	24	82
5	91	88	49	3
2	47	83	5	61
9	1	117	61	28
1	31	129	56	68
4	77	64	34	32
8	106	78	99	91
